3 
4  51 
5  07 22 37 52 
6  04 10 16 21 25 31 36 41 46 51 56 
7  01 06 11 16 21 26 31 36 41 46 51 56 
8  01 06 11 16 21 26 31 36 41 46 51 56 
9  01 06 12 17 22 29 37 44 52 59 
10  07 15 22 30 37 45 52 
11  00 07 15 22 30 37 45 52 
12  00 07 15 22 30 37 45 52 
13  00 07 15 22 30 37 45 52 
14  00 07 15 22 28 32 37 42 47 52 57 
15  02 07 12 17 22 27 32 37 42 47 52 57 
16  02 07 12 17 22 27 32 37 42 47 52 57 
17  02 07 12 17 22 27 32 37 42 47 52 57 
18  02 09 16 24 30 36 41 47 52 56 
19  02 09 16 24 32 39 47 54 
20  01 09 17 29 44 59 
21  14 29 44 59 
22  14 29 44 59 
23  13 
0 
